File : Instances/p63
Used 68s
26935

0 0 0 0 0 0 0 0 0 0 0 0 0 1 0 0 0 1 0 1 1 1 0 1 1 1 0 1 1 1 
27 19 21 27 21 28 21 27 27 28 29 28 13 13 28 27 13 20 24 27 27 24 23 24 23 27 27 17 29 21 19 19 19 21 27 19 20 20 24 21 27 20 19 29 13 19 13 21 19 17 24 24 24 21 20 19 25 20 27 25 29 17 25 20 13 25 23 17 28 25 27 19 19 20 23 23 20 23 20 24 23 17 20 25 29 13 19 23 27 25 28 19 25 25 24 13 28 28 17 28 28 21 25 25 29 24 29 24 27 13 19 29 27 19 28 20 28 25 17 13 20 25 17 19 19 21 21 28 29 17 28 24 25 20 23 20 13 13 28 17 25 24 28 25 25 23 24 21 27 25 24 17 23 17 13 28 21 21 13 13 13 27 23 24 23 27 23 29 13 21 13 20 19 20 29 21 24 20 29 20 23 21 24 19 28 20 28 23 17 21 21 21 19 29 25 19 25 21 23 19 
